qbf_easy_train/easy_5134_SAT.qdimacs
p cnf 26 66
a 8 9 25 0
e 1 2 3 4 5 6 7 10 11 12 13 14 15 16 17 18 19 20 21 22 23 24 26 0
3 1 0
3 2 0
-1 -2 -3 0
-4 -3 0
-4 -3 0
3 4 0
-7 5 0
-7 -6 0
-5 6 7 0
-5 -1 -8 0
5 1 -8 0
-5 1 8 0
5 -1 8 0
10 9 0
10 2 0
-9 -2 -10 0
-11 6 -12 0
11 -6 -12 0
-11 -6 12 0
11 6 12 0
-13 -10 0
-13 12 0
10 -12 13 0
-14 -8 0
-14 -13 0
8 13 14 0
15 7 0
15 14 0
-7 -14 -15 0
4 15 -16 0
-4 -15 -16 0
4 -15 16 0
-4 15 16 0
18 17 0
18 -1 0
-17 1 -18 0
-20 18 0
-20 -19 0
-18 19 20 0
11 -3 -21 0
-11 3 -21 0
11 3 21 0
-11 -3 21 0
-22 -5 0
-22 -6 0
5 6 22 0
-23 -22 0
-23 9 0
22 -9 23 0
24 21 0
24 23 0
-21 -23 -24 0
-20 -24 -25 0
20 24 -25 0
-20 24 25 0
20 -24 25 0
26 16 0
26 -25 0
-16 25 -26 0
5 24 -25 14 16 -26 22 0
-26 5 1 0
25 24 26 23 15 21 0
-25 14 -26 8 0
26 6 19 -23 17 0
19 18 -15 0
26 0
