sat_easy_train/easy_5134_SAT.dimacs
p cnf 125 415
3 -1 0
3 2 0
1 -2 -3 0
-5 3 0
-5 4 0
-3 -4 5 0
-7 -5 0
-7 -6 0
5 6 7 0
-10 9 0
-10 -8 0
-9 8 10 0
-11 -8 0
-11 -10 0
8 10 11 0
14 12 0
14 13 0
-12 -13 -14 0
-15 11 0
-15 -14 0
-11 14 15 0
-7 15 -16 0
7 -15 -16 0
-7 -15 16 0
7 15 16 0
18 17 0
18 17 0
-17 -18 0
18 19 -20 0
-18 -19 -20 0
18 -19 20 0
-18 19 20 0
-22 -1 0
-22 -21 0
1 21 22 0
-23 19 0
-23 -22 0
-19 22 23 0
-24 -20 0
-24 -23 0
20 23 24 0
25 -16 0
25 -24 0
16 24 -25 0
-27 -13 0
-27 26 0
13 -26 27 0
28 27 0
28 18 0
-27 -18 -28 0
-29 -25 0
-29 -28 0
25 28 29 0
-30 -11 0
-30 -5 0
11 5 30 0
31 -4 0
31 14 0
4 -14 -31 0
32 30 0
32 -31 0
-30 31 -32 0
33 -9 -34 0
-33 9 -34 0
33 9 34 0
-33 -9 34 0
-35 -9 0
-35 17 0
9 -17 35 0
-34 35 -36 0
34 -35 -36 0
-34 -35 36 0
34 35 36 0
6 36 -37 0
-6 -36 -37 0
6 -36 37 0
-6 36 37 0
15 21 -38 0
-15 -21 -38 0
15 -21 38 0
-15 21 38 0
37 38 -39 0
-37 -38 -39 0
37 -38 39 0
-37 38 39 0
40 -26 0
40 35 0
26 -35 -40 0
41 40 0
41 40 0
-40 -41 0
-43 42 0
-43 -12 0
-42 12 43 0
-44 2 0
-44 -43 0
-2 43 44 0
-41 -44 -45 0
41 44 -45 0
-41 44 45 0
41 -44 45 0
45 -31 -46 0
-45 31 -46 0
45 31 46 0
-45 -31 46 0
47 3 0
47 5 0
-3 -5 -47 0
48 46 0
48 -47 0
-46 47 -48 0
-49 39 0
-49 -48 0
-39 48 49 0
-50 -41 0
-50 5 0
41 -5 50 0
51 -50 0
51 30 0
50 -30 -51 0
-52 49 0
-52 51 0
-49 -51 52 0
-32 -52 -53 0
32 52 -53 0
-32 52 53 0
32 -52 53 0
-54 -43 0
-54 7 0
43 -7 54 0
-56 55 0
-56 -13 0
-55 13 56 0
54 -56 -57 0
-54 56 -57 0
54 56 57 0
-54 -56 57 0
-6 4 -58 0
6 -4 -58 0
-6 -4 58 0
6 4 58 0
-59 58 0
-59 -2 0
-58 2 59 0
-59 -3 -60 0
59 3 -60 0
-59 3 60 0
59 -3 60 0
-61 -12 0
-61 -22 0
12 22 61 0
62 -50 0
62 61 0
50 -61 -62 0
-63 -60 0
-63 62 0
60 -62 63 0
64 -57 0
64 63 0
57 -63 -64 0
26 -11 -65 0
-26 11 -65 0
26 11 65 0
-26 -11 65 0
-17 -65 -66 0
17 65 -66 0
-17 65 66 0
17 -65 66 0
67 14 0
67 -11 0
-14 11 -67 0
-68 -66 0
-68 -67 0
66 67 68 0
-69 64 0
-69 -68 0
-64 68 69 0
17 70 -71 0
-17 -70 -71 0
17 -70 71 0
-17 70 71 0
72 41 0
72 -17 0
-41 17 -72 0
-73 -71 0
-73 -72 0
71 72 73 0
-69 73 -74 0
69 -73 -74 0
-69 -73 74 0
69 73 74 0
75 2 0
75 1 0
-2 -1 -75 0
-76 -7 0
-76 13 0
7 -13 76 0
41 -35 -77 0
-41 35 -77 0
41 35 77 0
-41 -35 77 0
78 76 0
78 -77 0
-76 77 -78 0
79 75 0
79 -78 0
-75 78 -79 0
80 26 0
80 33 0
-26 -33 -80 0
-81 -1 0
-81 -17 0
1 17 81 0
-41 -81 -82 0
41 81 -82 0
-41 81 82 0
41 -81 82 0
-83 -82 0
-83 42 0
82 -42 83 0
84 8 0
84 40 0
-8 -40 -84 0
85 83 0
85 84 0
-83 -84 -85 0
-80 85 -86 0
80 -85 -86 0
-80 -85 86 0
80 85 86 0
79 86 -87 0
-79 -86 -87 0
79 -86 87 0
-79 86 87 0
-88 74 0
-88 -87 0
-74 87 88 0
34 36 -89 0
-34 -36 -89 0
34 -36 89 0
-34 36 89 0
-90 89 0
-90 4 0
-89 -4 90 0
91 31 0
91 90 0
-31 -90 -91 0
-71 -14 -92 0
71 14 -92 0
-71 14 92 0
71 -14 92 0
-17 -59 -93 0
17 59 -93 0
-17 59 93 0
17 -59 93 0
-94 -93 0
-94 -19 0
93 19 94 0
95 27 0
95 -19 0
-27 19 -95 0
-96 -94 0
-96 -95 0
94 95 96 0
92 -96 -97 0
-92 96 -97 0
92 96 97 0
-92 -96 97 0
-6 -1 -98 0
6 1 -98 0
-6 1 98 0
6 -1 98 0
-99 21 0
-99 -34 0
-21 34 99 0
-100 -98 0
-100 -99 0
98 99 100 0
50 15 -101 0
-50 -15 -101 0
50 -15 101 0
-50 15 101 0
102 100 0
102 -101 0
-100 101 -102 0
-103 -97 0
-103 102 0
97 -102 103 0
104 91 0
104 103 0
-91 -103 -104 0
88 104 -105 0
-88 -104 -105 0
88 -104 105 0
-88 104 105 0
-106 -9 0
-106 8 0
9 -8 106 0
-107 3 0
-107 -106 0
-3 106 107 0
108 6 0
108 -22 0
-6 22 -108 0
-108 31 -109 0
108 -31 -109 0
-108 -31 109 0
108 31 109 0
110 22 0
110 7 0
-22 -7 -110 0
109 -110 -111 0
-109 110 -111 0
109 110 111 0
-109 -110 111 0
112 1 0
112 -41 0
-1 41 -112 0
112 -42 -113 0
-112 42 -113 0
112 42 113 0
-112 -42 113 0
-114 111 0
-114 113 0
-111 -113 114 0
-115 -107 0
-115 -114 0
107 114 115 0
-116 105 0
-116 115 0
-105 -115 116 0
117 -53 0
117 116 0
53 -116 -117 0
-118 29 0
-118 117 0
-29 -117 118 0
36 58 -119 0
-36 -58 -119 0
36 -58 119 0
-36 58 119 0
120 33 0
120 -119 0
-33 119 -120 0
121 36 0
121 77 0
-36 -77 -121 0
122 31 0
122 13 0
-31 -13 -122 0
121 122 -123 0
-121 -122 -123 0
121 -122 123 0
-121 122 123 0
124 120 0
124 -123 0
-120 123 -124 0
125 118 0
125 124 0
-118 -124 -125 0
-102 47 28 0
100 95 0
58 66 61 8 -69 -13 0
52 57 0
74 59 0
18 14 -107 0
-83 -5 0
41 -10 -49 116 64 0
-30 81 117 0
-76 -43 -112 -102 5 -116 0
-122 -45 125 -59 0
115 -26 0
116 -19 -90 0
-118 115 0
-102 22 -95 0
-27 -107 0
-24 119 -41 -49 7 3 0
66 -18 103 45 0
76 37 0
27 -67 -120 0
20 -89 0
121 8 0
74 65 85 0
-12 55 -92 0
-9 30 -118 105 34 0
35 114 -124 0
13 68 22 -39 82 55 0
21 50 -91 -1 0
-54 -82 68 -103 71 35 0
-3 -78 -66 -77 0
53 -15 -115 -20 0
-26 -96 -98 67 -114 0
14 24 44 -67 28 0
118 -8 -62 43 -77 0
-90 -77 4 0
6 22 -60 -79 -19 -21 0
-55 12 0
-6 -87 1 103 -72 0
70 118 -80 -25 -75 -107 0
91 51 18 105 -124 0
82 -9 0
-31 30 -100 67 38 10 0
-47 4 57 99 -3 -34 0
-87 -23 90 34 -115 -113 0
33 -56 -42 38 118 -98 0
-13 23 0
-22 -108 47 -75 0
112 -24 0
-81 99 54 -86 -19 0
96 13 41 -16 0
83 4 79 0
51 67 -83 64 102 21 0
-119 19 -4 49 71 0
-112 -72 -17 54 30 20 0
125 0
